SimulationType                     MonteCarlo
NumberofCycles                     500
NumberofInitializationCycles       100
PrintEvery                         100

Forcefield                         GenericMOFs
ChargeMethod                       EWald
CutOff                             15.0

Framework  0
FrameworkName  MAT-16
UnitCells  2 2 2
ExternalTemperature  298
ExternalPressure  1e5 2.5e5 5e5 1e6 2.5e6 5e6

Component 0  MoleculeName                      N2
             MoleculeDefinition                TraPPE
             TranslationProbability            1.0
             ReinsertionProbability            1.0
             SwapProbability                   1.0
             CreateNumberOfMolecules           0